40
1 0 70
2 0 94
2 1 62
3 0 66
3 1 8
3 2 69
4 0 12
4 1 18
4 2 100
4 3 5
5 0 54
5 1 8
5 2 27
5 3 21
5 4 84
6 0 83
6 1 91
6 2 39
6 3 70
6 4 55
6 5 100
7 0 74
7 1 39
7 2 13
7 3 66
7 4 87
7 5 17
7 6 63
8 0 19
8 1 41
8 2 56
8 3 24
8 4 25
8 5 96
8 6 45
8 7 41
9 0 88
9 1 38
9 2 4
9 3 96
9 4 67
9 5 8
9 6 86
9 7 40
9 8 33
10 0 94
10 1 57
10 2 79
10 3 55
10 4 91
10 5 13
10 6 65
10 7 85
10 8 55
10 9 57
11 0 93
11 1 83
11 2 92
11 3 60
11 4 4
11 5 99
11 6 60
11 7 55
11 8 36
11 9 4
11 10 86
12 0 59
12 1 86
12 2 43
12 3 14
12 4 4
12 5 62
12 6 47
12 7 46
12 8 40
12 9 45
12 10 18
12 11 28
13 0 32
13 1 88
13 2 95
13 3 6
13 4 49
13 5 24
13 6 49
13 7 58
13 8 58
13 9 62
13 10 64
13 11 52
13 12 22
14 0 79
14 1 13
14 2 14
14 3 99
14 4 60
14 5 29
14 6 94
14 7 82
14 8 26
14 9 31
14 10 64
14 11 14
14 12 51
14 13 57
15 0 80
15 1 97
15 2 81
15 3 2
15 4 7
15 5 40
15 6 77
15 7 90
15 8 82
15 9 52
15 10 57
15 11 99
15 12 51
15 13 60
15 14 15
16 0 30
16 1 26
16 2 89
16 3 38
16 4 1
16 5 41
16 6 73
16 7 46
16 8 79
16 9 95
16 10 54
16 11 20
16 12 4
16 13 13
16 14 94
16 15 10
17 0 70
17 1 76
17 2 17
17 3 28
17 4 46
17 5 86
17 6 45
17 7 66
17 8 67
17 9 78
17 10 100
17 11 94
17 12 28
17 13 79
17 14 87
17 15 37
17 16 55
18 0 95
18 1 74
18 2 23
18 3 43
18 4 72
18 5 42
18 6 65
18 7 80
18 8 44
18 9 67
18 10 5
18 11 96
18 12 89
18 13 53
18 14 42
18 15 5
18 16 41
18 17 38
19 0 24
19 1 43
19 2 29
19 3 33
19 4 61
19 5 100
19 6 55
19 7 68
19 8 14
19 9 11
19 10 10
19 11 56
19 12 37
19 13 50
19 14 3
19 15 8
19 16 8
19 17 42
19 18 65
20 0 35
20 1 49
20 2 100
20 3 20
20 4 50
20 5 35
20 6 18
20 7 60
20 8 39
20 9 50
20 10 18
20 11 67
20 12 59
20 13 12
20 14 7
20 15 52
20 16 2
20 17 5
20 18 96
20 19 21
21 0 16
21 1 79
21 2 92
21 3 72
21 4 72
21 5 94
21 6 60
21 7 100
21 8 31
21 9 36
21 10 23
21 11 53
21 12 42
21 13 32
21 14 32
21 15 66
21 16 68
21 17 19
21 18 48
21 19 75
21 20 33
22 0 71
22 1 90
22 2 69
22 3 33
22 4 75
22 5 68
22 6 62
22 7 54
22 8 11
22 9 85
22 10 65
22 11 82
22 12 82
22 13 77
22 14 97
22 15 11
22 16 90
22 17 54
22 18 78
22 19 83
22 20 67
22 21 16
23 0 79
23 1 99
23 2 92
23 3 92
23 4 31
23 5 4
23 6 66
23 7 16
23 8 5
23 9 35
23 10 21
23 11 22
23 12 29
23 13 60
23 14 80
23 15 58
23 16 100
23 17 84
23 18 4
23 19 13
23 20 5
23 21 72
23 22 82
24 0 23
24 1 57
24 2 21
24 3 60
24 4 10
24 5 15
24 6 95
24 7 11
24 8 53
24 9 40
24 10 83
24 11 89
24 12 6
24 13 8
24 14 59
24 15 22
24 16 1
24 17 87
24 18 58
24 19 35
24 20 21
24 21 32
24 22 75
24 23 19
25 0 4
25 1 78
25 2 72
25 3 65
25 4 33
25 5 20
25 6 50
25 7 48
25 8 28
25 9 9
25 10 4
25 11 25
25 12 12
25 13 16
25 14 79
25 15 75
25 16 54
25 17 25
25 18 99
25 19 9
25 20 98
25 21 77
25 22 35
25 23 13
25 24 22
26 0 57
26 1 17
26 2 8
26 3 92
26 4 10
26 5 38
26 6 46
26 7 16
26 8 23
26 9 72
26 10 69
26 11 93
26 12 99
26 13 30
26 14 98
26 15 25
26 16 34
26 17 10
26 18 36
26 19 37
26 20 51
26 21 17
26 22 97
26 23 20
26 24 59
26 25 75
27 0 100
27 1 88
27 2 42
27 3 26
27 4 84
27 5 21
27 6 99
27 7 22
27 8 32
27 9 33
27 10 83
27 11 27
27 12 21
27 13 84
27 14 16
27 15 7
27 16 25
27 17 29
27 18 75
27 19 62
27 20 40
27 21 68
27 22 75
27 23 27
27 24 14
27 25 47
27 26 98
28 0 55
28 1 93
28 2 22
28 3 40
28 4 48
28 5 18
28 6 76
28 7 79
28 8 16
28 9 42
28 10 62
28 11 80
28 12 62
28 13 43
28 14 19
28 15 97
28 16 27
28 17 50
28 18 61
28 19 34
28 20 51
28 21 18
28 22 53
28 23 72
28 24 31
28 25 13
28 26 26
28 27 84
29 0 75
29 1 93
29 2 80
29 3 82
29 4 91
29 5 94
29 6 95
29 7 81
29 8 57
29 9 63
29 10 35
29 11 67
29 12 61
29 13 93
29 14 18
29 15 92
29 16 6
29 17 55
29 18 97
29 19 66
29 20 23
29 21 24
29 22 58
29 23 88
29 24 31
29 25 49
29 26 48
29 27 39
29 28 40
30 0 27
30 1 73
30 2 54
30 3 90
30 4 56
30 5 39
30 6 16
30 7 66
30 8 87
30 9 24
30 10 53
30 11 34
30 12 21
30 13 3
30 14 36
30 15 83
30 16 86
30 17 61
30 18 95
30 19 84
30 20 6
30 21 74
30 22 14
30 23 87
30 24 62
30 25 33
30 26 66
30 27 7
30 28 78
30 29 53
31 0 96
31 1 3
31 2 5
31 3 78
31 4 70
31 5 21
31 6 77
31 7 84
31 8 44
31 9 58
31 10 57
31 11 39
31 12 22
31 13 93
31 14 9
31 15 71
31 16 5
31 17 62
31 18 52
31 19 55
31 20 53
31 21 84
31 22 95
31 23 10
31 24 11
31 25 70
31 26 49
31 27 84
31 28 72
31 29 70
31 30 58
32 0 58
32 1 70
32 2 39
32 3 20
32 4 97
32 5 39
32 6 15
32 7 66
32 8 21
32 9 77
32 10 65
32 11 27
32 12 1
32 13 90
32 14 23
32 15 7
32 16 75
32 17 22
32 18 27
32 19 44
32 20 43
32 21 79
32 22 38
32 23 25
32 24 7
32 25 22
32 26 94
32 27 80
32 28 35
32 29 69
32 30 29
32 31 85
33 0 94
33 1 40
33 2 56
33 3 41
33 4 59
33 5 38
33 6 14
33 7 5
33 8 96
33 9 37
33 10 4
33 11 96
33 12 97
33 13 40
33 14 76
33 15 7
33 16 86
33 17 6
33 18 40
33 19 79
33 20 42
33 21 75
33 22 17
33 23 41
33 24 100
33 25 37
33 26 43
33 27 96
33 28 33
33 29 17
33 30 1
33 31 31
33 32 22
34 0 76
34 1 48
34 2 69
34 3 64
34 4 52
34 5 39
34 6 88
34 7 82
34 8 98
34 9 97
34 10 85
34 11 28
34 12 70
34 13 59
34 14 47
34 15 3
34 16 86
34 17 98
34 18 80
34 19 30
34 20 68
34 21 18
34 22 73
34 23 49
34 24 22
34 25 49
34 26 31
34 27 31
34 28 15
34 29 6
34 30 87
34 31 23
34 32 76
34 33 82
35 0 81
35 1 68
35 2 15
35 3 87
35 4 66
35 5 72
35 6 24
35 7 62
35 8 72
35 9 1
35 10 39
35 11 24
35 12 58
35 13 40
35 14 44
35 15 12
35 16 11
35 17 39
35 18 59
35 19 56
35 20 77
35 21 27
35 22 50
35 23 89
35 24 45
35 25 86
35 26 41
35 27 53
35 28 6
35 29 92
35 30 15
35 31 90
35 32 68
35 33 75
35 34 50
36 0 15
36 1 83
36 2 67
36 3 12
36 4 6
36 5 37
36 6 19
36 7 5
36 8 61
36 9 100
36 10 19
36 11 52
36 12 5
36 13 25
36 14 43
36 15 53
36 16 57
36 17 73
36 18 12
36 19 51
36 20 71
36 21 70
36 22 45
36 23 93
36 24 32
36 25 41
36 26 25
36 27 76
36 28 58
36 29 76
36 30 29
36 31 9
36 32 36
36 33 22
36 34 70
36 35 31
37 0 11
37 1 1
37 2 70
37 3 67
37 4 84
37 5 2
37 6 59
37 7 19
37 8 2
37 9 99
37 10 53
37 11 12
37 12 43
37 13 88
37 14 79
37 15 45
37 16 27
37 17 51
37 18 37
37 19 30
37 20 6
37 21 84
37 22 15
37 23 98
37 24 19
37 25 49
37 26 3
37 27 18
37 28 8
37 29 38
37 30 75
37 31 63
37 32 30
37 33 64
37 34 22
37 35 3
37 36 26
38 0 6
38 1 69
38 2 22
38 3 16
38 4 76
38 5 2
38 6 82
38 7 28
38 8 94
38 9 87
38 10 87
38 11 1
38 12 83
38 13 64
38 14 13
38 15 1
38 16 12
38 17 33
38 18 12
38 19 43
38 20 67
38 21 91
38 22 11
38 23 23
38 24 7
38 25 56
38 26 45
38 27 74
38 28 52
38 29 9
38 30 15
38 31 29
38 32 8
38 33 36
38 34 57
38 35 44
38 36 9
38 37 41
39 0 47
39 1 7
39 2 53
39 3 75
39 4 5
39 5 44
39 6 52
39 7 90
39 8 42
39 9 94
39 10 23
39 11 30
39 12 85
39 13 26
39 14 87
39 15 96
39 16 76
39 17 99
39 18 60
39 19 61
39 20 9
39 21 3
39 22 50
39 23 24
39 24 66
39 25 30
39 26 94
39 27 19
39 28 71
39 29 55
39 30 96
39 31 27
39 32 60
39 33 45
39 34 53
39 35 46
39 36 42
39 37 100
39 38 80
